p cnf 45 45
-14 -22 -4 0
-16 -14 -10 0
-23 -20 -26 0
-8 -5 -2 0
-20 -11 -2 0
-8 -26 -17 0
-7 -14 28 -19 0
-26 -2 31 0
32 -18 -10 0
-16 33 -12 0
34 -11 -17 0
-23 -5 35 0
-8 -20 36 0
-22 -6 37 0
-14 -37 30 0
-24 -4 38 0
-38 -14 29 0
41 -22 -5 0
42 -10 -17 0
-13 -42 -41 -7 -20 0
-16 43 -11 0
-1 -43 -26 -41 0
-23 -4 44 0
-44 -2 -42 -25 0
-13 -44 -43 -8 -19 0
-14 -1 -25 0
-47 -19 -9 0
40 1 -3 47 0
-48 -7 -21 0
48 25 -27 39 0
-31 -28 0
-28 -35 0
-28 -34 0
-29 -36 0
-31 -29 0
-30 -36 0
-31 -30 0
-32 -39 -35 0
-40 39 0
48 1 -3 39 0
40 25 -27 47 0
-40 -35 -33 0
40 -39 0
-30 -34 0
-29 -34 0
